Minimize
	value: tt

Subject to
s_1_12 = 1
tt + 1000 s_1_1 > 0.0
tt - t_1_1 - 1000.000000 s_1_1  > -989.822800
tt + 1000 s_2_1 > 0.0
tt - t_2_1 - 1000.000000 s_2_1  > -995.570300
tt + 1000 s_1_2 > 0.0
tt - t_1_2 - 1000.000000 s_1_2  > -994.916700
tt + 1000 s_2_2 > 0.0
tt - t_2_2 - 1000.000000 s_2_2  > -997.339400
tt + 1000 s_1_3 > 0.0
tt - t_1_3 - 1000.000000 s_1_3  > -992.664200
tt + 1000 s_2_3 > 0.0
tt - t_2_3 - 1000.000000 s_2_3  > -995.997000
tt + 1000 s_1_4 > 0.0
tt - t_1_4 - 1000.000000 s_1_4  > -989.839200
tt + 1000 s_2_4 > 0.0
tt - t_2_4 - 1000.000000 s_2_4  > -995.365200
tt + 1000 s_1_5 > 0.0
tt - t_1_5 - 1000.000000 s_1_5  > -995.007000
tt + 1000 s_2_5 > 0.0
tt - t_2_5 - 1000.000000 s_2_5  > -997.372200
tt + 1000 s_1_6 > 0.0
tt - t_1_6 - 1000.000000 s_1_6  > -993.426800
tt + 1000 s_2_6 > 0.0
tt - t_2_6 - 1000.000000 s_2_6  > -996.783100
tt + 1000 s_1_7 > 0.0
tt - t_1_7 - 1000.000000 s_1_7  > -992.774300
tt + 1000 s_2_7 > 0.0
tt - t_2_7 - 1000.000000 s_2_7  > -996.066800
tt + 1000 s_1_8 > 0.0
tt - t_1_8 - 1000.000000 s_1_8  > -991.040800
tt + 1000 s_2_8 > 0.0
tt - t_2_8 - 1000.000000 s_2_8  > -995.626600
tt + 1000 s_1_9 > 0.0
tt - t_1_9 - 1000.000000 s_1_9  > -990.426800
tt + 1000 s_2_9 > 0.0
tt - t_2_9 - 1000.000000 s_2_9  > -995.099000
tt + 1000 s_1_10 > 0.0
tt - t_1_10 - 1000.000000 s_1_10  > -998.807200
tt + 1000 s_2_10 > 0.0
tt - t_2_10 - 1000.000000 s_2_10  > -998.562300
tt + 1000 s_1_11 > 0.0
tt - t_1_11 - 1000.000000 s_1_11  > -996.524900
tt + 1000 s_2_11 > 0.0
tt - t_2_11 - 1000.000000 s_2_11  > -998.166300
tt + 1000 s_1_12 > 0.0
tt - t_1_12 - 1000.000000 s_1_12  > -999.764889
tt + 1000 s_2_12 > 0.0
tt - t_2_12 - 1000.000000 s_2_12  > -998.684400
s_1_1 + s_2_1 = 1
s_1_2 + s_2_2 = 1
s_1_3 + s_2_3 = 1
s_1_4 + s_2_4 = 1
s_1_5 + s_2_5 = 1
s_1_6 + s_2_6 = 1
s_1_7 + s_2_7 = 1
s_1_8 + s_2_8 = 1
s_1_9 + s_2_9 = 1
s_1_10 + s_2_10 = 1
s_1_11 + s_2_11 = 1
s_1_12 + s_2_12 = 1
s_1_1 + s_1_2 + 1000 r_1_1_2 >= 2
- s_1_1 - s_1_2 - 1000 r_1_1_2 >= -1001
t_1_1 - t_1_2 - 1000.000000 u_1_1_2 - 0.000000 s_1_2  + 2000.000000 r_1_1_2 > -994.916700
s_2_1 + s_2_2 + 1000 r_2_1_2 >= 2
- s_2_1 - s_2_2 - 1000 r_2_1_2 >= -1001
t_2_1 - t_2_2 - 1000.000000 u_2_1_2 - 0.000000 s_2_2  + 2000.000000 r_2_1_2 > -997.339400
s_1_1 + s_1_3 + 1000 r_1_1_3 >= 2
- s_1_1 - s_1_3 - 1000 r_1_1_3 >= -1001
t_1_1 - t_1_3 - 1000.000000 u_1_1_3 - 0.000000 s_1_3  + 2000.000000 r_1_1_3 > -992.664200
s_2_1 + s_2_3 + 1000 r_2_1_3 >= 2
- s_2_1 - s_2_3 - 1000 r_2_1_3 >= -1001
t_2_1 - t_2_3 - 1000.000000 u_2_1_3 - 0.000000 s_2_3  + 2000.000000 r_2_1_3 > -995.997000
s_1_1 + s_1_4 + 1000 r_1_1_4 >= 2
- s_1_1 - s_1_4 - 1000 r_1_1_4 >= -1001
t_1_1 - t_1_4 - 1000.000000 u_1_1_4 - 0.000000 s_1_4  + 2000.000000 r_1_1_4 > -989.839200
s_2_1 + s_2_4 + 1000 r_2_1_4 >= 2
- s_2_1 - s_2_4 - 1000 r_2_1_4 >= -1001
t_2_1 - t_2_4 - 1000.000000 u_2_1_4 - 0.000000 s_2_4  + 2000.000000 r_2_1_4 > -995.365200
s_1_1 + s_1_5 + 1000 r_1_1_5 >= 2
- s_1_1 - s_1_5 - 1000 r_1_1_5 >= -1001
t_1_1 - t_1_5 - 1000.000000 u_1_1_5 - 0.000000 s_1_5  + 2000.000000 r_1_1_5 > -995.007000
s_2_1 + s_2_5 + 1000 r_2_1_5 >= 2
- s_2_1 - s_2_5 - 1000 r_2_1_5 >= -1001
t_2_1 - t_2_5 - 1000.000000 u_2_1_5 - 0.000000 s_2_5  + 2000.000000 r_2_1_5 > -997.372200
s_1_1 + s_1_6 + 1000 r_1_1_6 >= 2
- s_1_1 - s_1_6 - 1000 r_1_1_6 >= -1001
t_1_1 - t_1_6 - 1000.000000 u_1_1_6 - 0.000000 s_1_6  + 2000.000000 r_1_1_6 > -993.426800
s_2_1 + s_2_6 + 1000 r_2_1_6 >= 2
- s_2_1 - s_2_6 - 1000 r_2_1_6 >= -1001
t_2_1 - t_2_6 - 1000.000000 u_2_1_6 - 0.000000 s_2_6  + 2000.000000 r_2_1_6 > -996.783100
s_1_1 + s_1_7 + 1000 r_1_1_7 >= 2
- s_1_1 - s_1_7 - 1000 r_1_1_7 >= -1001
t_1_1 - t_1_7 - 1000.000000 u_1_1_7 - 0.000000 s_1_7  + 2000.000000 r_1_1_7 > -992.774300
s_2_1 + s_2_7 + 1000 r_2_1_7 >= 2
- s_2_1 - s_2_7 - 1000 r_2_1_7 >= -1001
t_2_1 - t_2_7 - 1000.000000 u_2_1_7 - 0.000000 s_2_7  + 2000.000000 r_2_1_7 > -996.066800
s_1_1 + s_1_8 + 1000 r_1_1_8 >= 2
- s_1_1 - s_1_8 - 1000 r_1_1_8 >= -1001
t_1_1 - t_1_8 - 1000.000000 u_1_1_8 - 0.000000 s_1_8  + 2000.000000 r_1_1_8 > -991.040800
s_2_1 + s_2_8 + 1000 r_2_1_8 >= 2
- s_2_1 - s_2_8 - 1000 r_2_1_8 >= -1001
t_2_1 - t_2_8 - 1000.000000 u_2_1_8 - 0.000000 s_2_8  + 2000.000000 r_2_1_8 > -995.626600
s_1_1 + s_1_9 + 1000 r_1_1_9 >= 2
- s_1_1 - s_1_9 - 1000 r_1_1_9 >= -1001
t_1_1 - t_1_9 - 1000.000000 u_1_1_9 - 0.000000 s_1_9  + 2000.000000 r_1_1_9 > -990.426800
s_2_1 + s_2_9 + 1000 r_2_1_9 >= 2
- s_2_1 - s_2_9 - 1000 r_2_1_9 >= -1001
t_2_1 - t_2_9 - 1000.000000 u_2_1_9 - 0.000000 s_2_9  + 2000.000000 r_2_1_9 > -995.099000
s_1_1 + s_1_10 + 1000 r_1_1_10 >= 2
- s_1_1 - s_1_10 - 1000 r_1_1_10 >= -1001
t_1_1 - t_1_10 - 1000.000000 u_1_1_10 - 0.000000 s_1_10  + 2000.000000 r_1_1_10 > -998.807200
s_2_1 + s_2_10 + 1000 r_2_1_10 >= 2
- s_2_1 - s_2_10 - 1000 r_2_1_10 >= -1001
t_2_1 - t_2_10 - 1000.000000 u_2_1_10 - 0.000000 s_2_10  + 2000.000000 r_2_1_10 > -998.562300
s_1_1 + s_1_11 + 1000 r_1_1_11 >= 2
- s_1_1 - s_1_11 - 1000 r_1_1_11 >= -1001
t_1_1 - t_1_11 - 1000.000000 u_1_1_11 - 0.000000 s_1_11  + 2000.000000 r_1_1_11 > -996.524900
s_2_1 + s_2_11 + 1000 r_2_1_11 >= 2
- s_2_1 - s_2_11 - 1000 r_2_1_11 >= -1001
t_2_1 - t_2_11 - 1000.000000 u_2_1_11 - 0.000000 s_2_11  + 2000.000000 r_2_1_11 > -998.166300
t_1_12 - t_1_1 - 1000.000000 s_1_1  > -989.822800
t_1_12 - t_2_1 - 1000.000000 s_2_1  > -995.570300
t_2_12 - t_1_1 - 1000.000000 s_1_1  > -989.822800
t_2_12 - t_2_1 - 1000.000000 s_2_1  > -995.570300
s_1_2 + s_1_1 + 1000 r_1_1_2 >= 2
- s_1_2 - s_1_1 - 1000 r_1_1_2 >= -1001
t_1_2 - t_1_1 + 1000.000000 u_1_1_2 - 0.000000 s_1_1  + 2000.000000 r_1_1_2 > 10.177200
s_2_2 + s_2_1 + 1000 r_2_1_2 >= 2
- s_2_2 - s_2_1 - 1000 r_2_1_2 >= -1001
t_2_2 - t_2_1 + 1000.000000 u_2_1_2 - 0.000000 s_2_1  + 2000.000000 r_2_1_2 > 4.429700
t_1_3 - t_1_2 - 1000.000000 s_1_2  > -994.916700
t_1_3 - t_2_2 - 1000.000000 s_2_2  > -997.339400
t_2_3 - t_1_2 - 1000.000000 s_1_2  > -994.916700
t_2_3 - t_2_2 - 1000.000000 s_2_2  > -997.339400
s_1_2 + s_1_5 + 1000 r_1_2_5 >= 2
- s_1_2 - s_1_5 - 1000 r_1_2_5 >= -1001
t_1_2 - t_1_5 - 1000.000000 u_1_2_5 - 0.000000 s_1_5  + 2000.000000 r_1_2_5 > -995.007000
s_2_2 + s_2_5 + 1000 r_2_2_5 >= 2
- s_2_2 - s_2_5 - 1000 r_2_2_5 >= -1001
t_2_2 - t_2_5 - 1000.000000 u_2_2_5 - 0.000000 s_2_5  + 2000.000000 r_2_2_5 > -997.372200
s_1_2 + s_1_6 + 1000 r_1_2_6 >= 2
- s_1_2 - s_1_6 - 1000 r_1_2_6 >= -1001
t_1_2 - t_1_6 - 1000.000000 u_1_2_6 - 0.000000 s_1_6  + 2000.000000 r_1_2_6 > -993.426800
s_2_2 + s_2_6 + 1000 r_2_2_6 >= 2
- s_2_2 - s_2_6 - 1000 r_2_2_6 >= -1001
t_2_2 - t_2_6 - 1000.000000 u_2_2_6 - 0.000000 s_2_6  + 2000.000000 r_2_2_6 > -996.783100
s_1_2 + s_1_7 + 1000 r_1_2_7 >= 2
- s_1_2 - s_1_7 - 1000 r_1_2_7 >= -1001
t_1_2 - t_1_7 - 1000.000000 u_1_2_7 - 0.000000 s_1_7  + 2000.000000 r_1_2_7 > -992.774300
s_2_2 + s_2_7 + 1000 r_2_2_7 >= 2
- s_2_2 - s_2_7 - 1000 r_2_2_7 >= -1001
t_2_2 - t_2_7 - 1000.000000 u_2_2_7 - 0.000000 s_2_7  + 2000.000000 r_2_2_7 > -996.066800
s_1_2 + s_1_8 + 1000 r_1_2_8 >= 2
- s_1_2 - s_1_8 - 1000 r_1_2_8 >= -1001
t_1_2 - t_1_8 - 1000.000000 u_1_2_8 - 0.000000 s_1_8  + 2000.000000 r_1_2_8 > -991.040800
s_2_2 + s_2_8 + 1000 r_2_2_8 >= 2
- s_2_2 - s_2_8 - 1000 r_2_2_8 >= -1001
t_2_2 - t_2_8 - 1000.000000 u_2_2_8 - 0.000000 s_2_8  + 2000.000000 r_2_2_8 > -995.626600
s_1_2 + s_1_9 + 1000 r_1_2_9 >= 2
- s_1_2 - s_1_9 - 1000 r_1_2_9 >= -1001
t_1_2 - t_1_9 - 1000.000000 u_1_2_9 - 0.000000 s_1_9  + 2000.000000 r_1_2_9 > -990.426800
s_2_2 + s_2_9 + 1000 r_2_2_9 >= 2
- s_2_2 - s_2_9 - 1000 r_2_2_9 >= -1001
t_2_2 - t_2_9 - 1000.000000 u_2_2_9 - 0.000000 s_2_9  + 2000.000000 r_2_2_9 > -995.099000
s_1_2 + s_1_10 + 1000 r_1_2_10 >= 2
- s_1_2 - s_1_10 - 1000 r_1_2_10 >= -1001
t_1_2 - t_1_10 - 1000.000000 u_1_2_10 - 0.000000 s_1_10  + 2000.000000 r_1_2_10 > -998.807200
s_2_2 + s_2_10 + 1000 r_2_2_10 >= 2
- s_2_2 - s_2_10 - 1000 r_2_2_10 >= -1001
t_2_2 - t_2_10 - 1000.000000 u_2_2_10 - 0.000000 s_2_10  + 2000.000000 r_2_2_10 > -998.562300
s_1_2 + s_1_11 + 1000 r_1_2_11 >= 2
- s_1_2 - s_1_11 - 1000 r_1_2_11 >= -1001
t_1_2 - t_1_11 - 1000.000000 u_1_2_11 - 0.000000 s_1_11  + 2000.000000 r_1_2_11 > -996.524900
s_2_2 + s_2_11 + 1000 r_2_2_11 >= 2
- s_2_2 - s_2_11 - 1000 r_2_2_11 >= -1001
t_2_2 - t_2_11 - 1000.000000 u_2_2_11 - 0.000000 s_2_11  + 2000.000000 r_2_2_11 > -998.166300
s_1_3 + s_1_1 + 1000 r_1_1_3 >= 2
- s_1_3 - s_1_1 - 1000 r_1_1_3 >= -1001
t_1_3 - t_1_1 + 1000.000000 u_1_1_3 - 0.000000 s_1_1  + 2000.000000 r_1_1_3 > 10.177200
s_2_3 + s_2_1 + 1000 r_2_1_3 >= 2
- s_2_3 - s_2_1 - 1000 r_2_1_3 >= -1001
t_2_3 - t_2_1 + 1000.000000 u_2_1_3 - 0.000000 s_2_1  + 2000.000000 r_2_1_3 > 4.429700
t_1_4 - t_1_3 - 1000.000000 s_1_3  > -992.664200
t_1_4 - t_2_3 - 1000.000000 s_2_3  > -995.997000
t_2_4 - t_1_3 - 1000.000000 s_1_3  > -992.664200
t_2_4 - t_2_3 - 1000.000000 s_2_3  > -995.997000
s_1_3 + s_1_5 + 1000 r_1_3_5 >= 2
- s_1_3 - s_1_5 - 1000 r_1_3_5 >= -1001
t_1_3 - t_1_5 - 1000.000000 u_1_3_5 - 0.000000 s_1_5  + 2000.000000 r_1_3_5 > -995.007000
s_2_3 + s_2_5 + 1000 r_2_3_5 >= 2
- s_2_3 - s_2_5 - 1000 r_2_3_5 >= -1001
t_2_3 - t_2_5 - 1000.000000 u_2_3_5 - 0.000000 s_2_5  + 2000.000000 r_2_3_5 > -997.372200
s_1_3 + s_1_6 + 1000 r_1_3_6 >= 2
- s_1_3 - s_1_6 - 1000 r_1_3_6 >= -1001
t_1_3 - t_1_6 - 1000.000000 u_1_3_6 - 0.000000 s_1_6  + 2000.000000 r_1_3_6 > -993.426800
s_2_3 + s_2_6 + 1000 r_2_3_6 >= 2
- s_2_3 - s_2_6 - 1000 r_2_3_6 >= -1001
t_2_3 - t_2_6 - 1000.000000 u_2_3_6 - 0.000000 s_2_6  + 2000.000000 r_2_3_6 > -996.783100
s_1_3 + s_1_7 + 1000 r_1_3_7 >= 2
- s_1_3 - s_1_7 - 1000 r_1_3_7 >= -1001
t_1_3 - t_1_7 - 1000.000000 u_1_3_7 - 0.000000 s_1_7  + 2000.000000 r_1_3_7 > -992.774300
s_2_3 + s_2_7 + 1000 r_2_3_7 >= 2
- s_2_3 - s_2_7 - 1000 r_2_3_7 >= -1001
t_2_3 - t_2_7 - 1000.000000 u_2_3_7 - 0.000000 s_2_7  + 2000.000000 r_2_3_7 > -996.066800
s_1_3 + s_1_8 + 1000 r_1_3_8 >= 2
- s_1_3 - s_1_8 - 1000 r_1_3_8 >= -1001
t_1_3 - t_1_8 - 1000.000000 u_1_3_8 - 0.000000 s_1_8  + 2000.000000 r_1_3_8 > -991.040800
s_2_3 + s_2_8 + 1000 r_2_3_8 >= 2
- s_2_3 - s_2_8 - 1000 r_2_3_8 >= -1001
t_2_3 - t_2_8 - 1000.000000 u_2_3_8 - 0.000000 s_2_8  + 2000.000000 r_2_3_8 > -995.626600
s_1_3 + s_1_9 + 1000 r_1_3_9 >= 2
- s_1_3 - s_1_9 - 1000 r_1_3_9 >= -1001
t_1_3 - t_1_9 - 1000.000000 u_1_3_9 - 0.000000 s_1_9  + 2000.000000 r_1_3_9 > -990.426800
s_2_3 + s_2_9 + 1000 r_2_3_9 >= 2
- s_2_3 - s_2_9 - 1000 r_2_3_9 >= -1001
t_2_3 - t_2_9 - 1000.000000 u_2_3_9 - 0.000000 s_2_9  + 2000.000000 r_2_3_9 > -995.099000
s_1_3 + s_1_10 + 1000 r_1_3_10 >= 2
- s_1_3 - s_1_10 - 1000 r_1_3_10 >= -1001
t_1_3 - t_1_10 - 1000.000000 u_1_3_10 - 0.000000 s_1_10  + 2000.000000 r_1_3_10 > -998.807200
s_2_3 + s_2_10 + 1000 r_2_3_10 >= 2
- s_2_3 - s_2_10 - 1000 r_2_3_10 >= -1001
t_2_3 - t_2_10 - 1000.000000 u_2_3_10 - 0.000000 s_2_10  + 2000.000000 r_2_3_10 > -998.562300
s_1_3 + s_1_11 + 1000 r_1_3_11 >= 2
- s_1_3 - s_1_11 - 1000 r_1_3_11 >= -1001
t_1_3 - t_1_11 - 1000.000000 u_1_3_11 - 0.000000 s_1_11  + 2000.000000 r_1_3_11 > -996.524900
s_2_3 + s_2_11 + 1000 r_2_3_11 >= 2
- s_2_3 - s_2_11 - 1000 r_2_3_11 >= -1001
t_2_3 - t_2_11 - 1000.000000 u_2_3_11 - 0.000000 s_2_11  + 2000.000000 r_2_3_11 > -998.166300
s_1_4 + s_1_1 + 1000 r_1_1_4 >= 2
- s_1_4 - s_1_1 - 1000 r_1_1_4 >= -1001
t_1_4 - t_1_1 + 1000.000000 u_1_1_4 - 0.000000 s_1_1  + 2000.000000 r_1_1_4 > 10.177200
s_2_4 + s_2_1 + 1000 r_2_1_4 >= 2
- s_2_4 - s_2_1 - 1000 r_2_1_4 >= -1001
t_2_4 - t_2_1 + 1000.000000 u_2_1_4 - 0.000000 s_2_1  + 2000.000000 r_2_1_4 > 4.429700
s_1_4 + s_1_5 + 1000 r_1_4_5 >= 2
- s_1_4 - s_1_5 - 1000 r_1_4_5 >= -1001
t_1_4 - t_1_5 - 1000.000000 u_1_4_5 - 0.000000 s_1_5  + 2000.000000 r_1_4_5 > -995.007000
s_2_4 + s_2_5 + 1000 r_2_4_5 >= 2
- s_2_4 - s_2_5 - 1000 r_2_4_5 >= -1001
t_2_4 - t_2_5 - 1000.000000 u_2_4_5 - 0.000000 s_2_5  + 2000.000000 r_2_4_5 > -997.372200
s_1_4 + s_1_6 + 1000 r_1_4_6 >= 2
- s_1_4 - s_1_6 - 1000 r_1_4_6 >= -1001
t_1_4 - t_1_6 - 1000.000000 u_1_4_6 - 0.000000 s_1_6  + 2000.000000 r_1_4_6 > -993.426800
s_2_4 + s_2_6 + 1000 r_2_4_6 >= 2
- s_2_4 - s_2_6 - 1000 r_2_4_6 >= -1001
t_2_4 - t_2_6 - 1000.000000 u_2_4_6 - 0.000000 s_2_6  + 2000.000000 r_2_4_6 > -996.783100
s_1_4 + s_1_7 + 1000 r_1_4_7 >= 2
- s_1_4 - s_1_7 - 1000 r_1_4_7 >= -1001
t_1_4 - t_1_7 - 1000.000000 u_1_4_7 - 0.000000 s_1_7  + 2000.000000 r_1_4_7 > -992.774300
s_2_4 + s_2_7 + 1000 r_2_4_7 >= 2
- s_2_4 - s_2_7 - 1000 r_2_4_7 >= -1001
t_2_4 - t_2_7 - 1000.000000 u_2_4_7 - 0.000000 s_2_7  + 2000.000000 r_2_4_7 > -996.066800
s_1_4 + s_1_8 + 1000 r_1_4_8 >= 2
- s_1_4 - s_1_8 - 1000 r_1_4_8 >= -1001
t_1_4 - t_1_8 - 1000.000000 u_1_4_8 - 0.000000 s_1_8  + 2000.000000 r_1_4_8 > -991.040800
s_2_4 + s_2_8 + 1000 r_2_4_8 >= 2
- s_2_4 - s_2_8 - 1000 r_2_4_8 >= -1001
t_2_4 - t_2_8 - 1000.000000 u_2_4_8 - 0.000000 s_2_8  + 2000.000000 r_2_4_8 > -995.626600
s_1_4 + s_1_9 + 1000 r_1_4_9 >= 2
- s_1_4 - s_1_9 - 1000 r_1_4_9 >= -1001
t_1_4 - t_1_9 - 1000.000000 u_1_4_9 - 0.000000 s_1_9  + 2000.000000 r_1_4_9 > -990.426800
s_2_4 + s_2_9 + 1000 r_2_4_9 >= 2
- s_2_4 - s_2_9 - 1000 r_2_4_9 >= -1001
t_2_4 - t_2_9 - 1000.000000 u_2_4_9 - 0.000000 s_2_9  + 2000.000000 r_2_4_9 > -995.099000
s_1_4 + s_1_10 + 1000 r_1_4_10 >= 2
- s_1_4 - s_1_10 - 1000 r_1_4_10 >= -1001
t_1_4 - t_1_10 - 1000.000000 u_1_4_10 - 0.000000 s_1_10  + 2000.000000 r_1_4_10 > -998.807200
s_2_4 + s_2_10 + 1000 r_2_4_10 >= 2
- s_2_4 - s_2_10 - 1000 r_2_4_10 >= -1001
t_2_4 - t_2_10 - 1000.000000 u_2_4_10 - 0.000000 s_2_10  + 2000.000000 r_2_4_10 > -998.562300
s_1_4 + s_1_11 + 1000 r_1_4_11 >= 2
- s_1_4 - s_1_11 - 1000 r_1_4_11 >= -1001
t_1_4 - t_1_11 - 1000.000000 u_1_4_11 - 0.000000 s_1_11  + 2000.000000 r_1_4_11 > -996.524900
s_2_4 + s_2_11 + 1000 r_2_4_11 >= 2
- s_2_4 - s_2_11 - 1000 r_2_4_11 >= -1001
t_2_4 - t_2_11 - 1000.000000 u_2_4_11 - 0.000000 s_2_11  + 2000.000000 r_2_4_11 > -998.166300
t_1_12 - t_1_4 - 1000.000000 s_1_4  > -989.839200
t_1_12 - t_2_4 - 1000.000000 s_2_4  > -995.365200
t_2_12 - t_1_4 - 1000.000000 s_1_4  > -989.839200
t_2_12 - t_2_4 - 1000.000000 s_2_4  > -995.365200
s_1_5 + s_1_1 + 1000 r_1_1_5 >= 2
- s_1_5 - s_1_1 - 1000 r_1_1_5 >= -1001
t_1_5 - t_1_1 + 1000.000000 u_1_1_5 - 0.000000 s_1_1  + 2000.000000 r_1_1_5 > 10.177200
s_2_5 + s_2_1 + 1000 r_2_1_5 >= 2
- s_2_5 - s_2_1 - 1000 r_2_1_5 >= -1001
t_2_5 - t_2_1 + 1000.000000 u_2_1_5 - 0.000000 s_2_1  + 2000.000000 r_2_1_5 > 4.429700
s_1_5 + s_1_2 + 1000 r_1_2_5 >= 2
- s_1_5 - s_1_2 - 1000 r_1_2_5 >= -1001
t_1_5 - t_1_2 + 1000.000000 u_1_2_5 - 0.000000 s_1_2  + 2000.000000 r_1_2_5 > 5.083300
s_2_5 + s_2_2 + 1000 r_2_2_5 >= 2
- s_2_5 - s_2_2 - 1000 r_2_2_5 >= -1001
t_2_5 - t_2_2 + 1000.000000 u_2_2_5 - 0.000000 s_2_2  + 2000.000000 r_2_2_5 > 2.660600
s_1_5 + s_1_3 + 1000 r_1_3_5 >= 2
- s_1_5 - s_1_3 - 1000 r_1_3_5 >= -1001
t_1_5 - t_1_3 + 1000.000000 u_1_3_5 - 0.000000 s_1_3  + 2000.000000 r_1_3_5 > 7.335800
s_2_5 + s_2_3 + 1000 r_2_3_5 >= 2
- s_2_5 - s_2_3 - 1000 r_2_3_5 >= -1001
t_2_5 - t_2_3 + 1000.000000 u_2_3_5 - 0.000000 s_2_3  + 2000.000000 r_2_3_5 > 4.003000
s_1_5 + s_1_4 + 1000 r_1_4_5 >= 2
- s_1_5 - s_1_4 - 1000 r_1_4_5 >= -1001
t_1_5 - t_1_4 + 1000.000000 u_1_4_5 - 0.000000 s_1_4  + 2000.000000 r_1_4_5 > 10.160800
s_2_5 + s_2_4 + 1000 r_2_4_5 >= 2
- s_2_5 - s_2_4 - 1000 r_2_4_5 >= -1001
t_2_5 - t_2_4 + 1000.000000 u_2_4_5 - 0.000000 s_2_4  + 2000.000000 r_2_4_5 > 4.634800
t_1_6 - t_1_5 - 1000.000000 s_1_5  > -995.007000
t_1_6 - t_2_5 - 1000.000000 s_2_5  > -997.372200
t_2_6 - t_1_5 - 1000.000000 s_1_5  > -995.007000
t_2_6 - t_2_5 - 1000.000000 s_2_5  > -997.372200
s_1_5 + s_1_10 + 1000 r_1_5_10 >= 2
- s_1_5 - s_1_10 - 1000 r_1_5_10 >= -1001
t_1_5 - t_1_10 - 1000.000000 u_1_5_10 - 0.000000 s_1_10  + 2000.000000 r_1_5_10 > -998.807200
s_2_5 + s_2_10 + 1000 r_2_5_10 >= 2
- s_2_5 - s_2_10 - 1000 r_2_5_10 >= -1001
t_2_5 - t_2_10 - 1000.000000 u_2_5_10 - 0.000000 s_2_10  + 2000.000000 r_2_5_10 > -998.562300
s_1_5 + s_1_11 + 1000 r_1_5_11 >= 2
- s_1_5 - s_1_11 - 1000 r_1_5_11 >= -1001
t_1_5 - t_1_11 - 1000.000000 u_1_5_11 - 0.000000 s_1_11  + 2000.000000 r_1_5_11 > -996.524900
s_2_5 + s_2_11 + 1000 r_2_5_11 >= 2
- s_2_5 - s_2_11 - 1000 r_2_5_11 >= -1001
t_2_5 - t_2_11 - 1000.000000 u_2_5_11 - 0.000000 s_2_11  + 2000.000000 r_2_5_11 > -998.166300
s_1_6 + s_1_1 + 1000 r_1_1_6 >= 2
- s_1_6 - s_1_1 - 1000 r_1_1_6 >= -1001
t_1_6 - t_1_1 + 1000.000000 u_1_1_6 - 0.000000 s_1_1  + 2000.000000 r_1_1_6 > 10.177200
s_2_6 + s_2_1 + 1000 r_2_1_6 >= 2
- s_2_6 - s_2_1 - 1000 r_2_1_6 >= -1001
t_2_6 - t_2_1 + 1000.000000 u_2_1_6 - 0.000000 s_2_1  + 2000.000000 r_2_1_6 > 4.429700
s_1_6 + s_1_2 + 1000 r_1_2_6 >= 2
- s_1_6 - s_1_2 - 1000 r_1_2_6 >= -1001
t_1_6 - t_1_2 + 1000.000000 u_1_2_6 - 0.000000 s_1_2  + 2000.000000 r_1_2_6 > 5.083300
s_2_6 + s_2_2 + 1000 r_2_2_6 >= 2
- s_2_6 - s_2_2 - 1000 r_2_2_6 >= -1001
t_2_6 - t_2_2 + 1000.000000 u_2_2_6 - 0.000000 s_2_2  + 2000.000000 r_2_2_6 > 2.660600
s_1_6 + s_1_3 + 1000 r_1_3_6 >= 2
- s_1_6 - s_1_3 - 1000 r_1_3_6 >= -1001
t_1_6 - t_1_3 + 1000.000000 u_1_3_6 - 0.000000 s_1_3  + 2000.000000 r_1_3_6 > 7.335800
s_2_6 + s_2_3 + 1000 r_2_3_6 >= 2
- s_2_6 - s_2_3 - 1000 r_2_3_6 >= -1001
t_2_6 - t_2_3 + 1000.000000 u_2_3_6 - 0.000000 s_2_3  + 2000.000000 r_2_3_6 > 4.003000
s_1_6 + s_1_4 + 1000 r_1_4_6 >= 2
- s_1_6 - s_1_4 - 1000 r_1_4_6 >= -1001
t_1_6 - t_1_4 + 1000.000000 u_1_4_6 - 0.000000 s_1_4  + 2000.000000 r_1_4_6 > 10.160800
s_2_6 + s_2_4 + 1000 r_2_4_6 >= 2
- s_2_6 - s_2_4 - 1000 r_2_4_6 >= -1001
t_2_6 - t_2_4 + 1000.000000 u_2_4_6 - 0.000000 s_2_4  + 2000.000000 r_2_4_6 > 4.634800
t_1_7 - t_1_6 - 1000.000000 s_1_6  > -993.426800
t_1_7 - t_2_6 - 1000.000000 s_2_6  > -996.783100
t_2_7 - t_1_6 - 1000.000000 s_1_6  > -993.426800
t_2_7 - t_2_6 - 1000.000000 s_2_6  > -996.783100
s_1_6 + s_1_10 + 1000 r_1_6_10 >= 2
- s_1_6 - s_1_10 - 1000 r_1_6_10 >= -1001
t_1_6 - t_1_10 - 1000.000000 u_1_6_10 - 0.000000 s_1_10  + 2000.000000 r_1_6_10 > -998.807200
s_2_6 + s_2_10 + 1000 r_2_6_10 >= 2
- s_2_6 - s_2_10 - 1000 r_2_6_10 >= -1001
t_2_6 - t_2_10 - 1000.000000 u_2_6_10 - 0.000000 s_2_10  + 2000.000000 r_2_6_10 > -998.562300
s_1_6 + s_1_11 + 1000 r_1_6_11 >= 2
- s_1_6 - s_1_11 - 1000 r_1_6_11 >= -1001
t_1_6 - t_1_11 - 1000.000000 u_1_6_11 - 0.000000 s_1_11  + 2000.000000 r_1_6_11 > -996.524900
s_2_6 + s_2_11 + 1000 r_2_6_11 >= 2
- s_2_6 - s_2_11 - 1000 r_2_6_11 >= -1001
t_2_6 - t_2_11 - 1000.000000 u_2_6_11 - 0.000000 s_2_11  + 2000.000000 r_2_6_11 > -998.166300
s_1_7 + s_1_1 + 1000 r_1_1_7 >= 2
- s_1_7 - s_1_1 - 1000 r_1_1_7 >= -1001
t_1_7 - t_1_1 + 1000.000000 u_1_1_7 - 0.000000 s_1_1  + 2000.000000 r_1_1_7 > 10.177200
s_2_7 + s_2_1 + 1000 r_2_1_7 >= 2
- s_2_7 - s_2_1 - 1000 r_2_1_7 >= -1001
t_2_7 - t_2_1 + 1000.000000 u_2_1_7 - 0.000000 s_2_1  + 2000.000000 r_2_1_7 > 4.429700
s_1_7 + s_1_2 + 1000 r_1_2_7 >= 2
- s_1_7 - s_1_2 - 1000 r_1_2_7 >= -1001
t_1_7 - t_1_2 + 1000.000000 u_1_2_7 - 0.000000 s_1_2  + 2000.000000 r_1_2_7 > 5.083300
s_2_7 + s_2_2 + 1000 r_2_2_7 >= 2
- s_2_7 - s_2_2 - 1000 r_2_2_7 >= -1001
t_2_7 - t_2_2 + 1000.000000 u_2_2_7 - 0.000000 s_2_2  + 2000.000000 r_2_2_7 > 2.660600
s_1_7 + s_1_3 + 1000 r_1_3_7 >= 2
- s_1_7 - s_1_3 - 1000 r_1_3_7 >= -1001
t_1_7 - t_1_3 + 1000.000000 u_1_3_7 - 0.000000 s_1_3  + 2000.000000 r_1_3_7 > 7.335800
s_2_7 + s_2_3 + 1000 r_2_3_7 >= 2
- s_2_7 - s_2_3 - 1000 r_2_3_7 >= -1001
t_2_7 - t_2_3 + 1000.000000 u_2_3_7 - 0.000000 s_2_3  + 2000.000000 r_2_3_7 > 4.003000
s_1_7 + s_1_4 + 1000 r_1_4_7 >= 2
- s_1_7 - s_1_4 - 1000 r_1_4_7 >= -1001
t_1_7 - t_1_4 + 1000.000000 u_1_4_7 - 0.000000 s_1_4  + 2000.000000 r_1_4_7 > 10.160800
s_2_7 + s_2_4 + 1000 r_2_4_7 >= 2
- s_2_7 - s_2_4 - 1000 r_2_4_7 >= -1001
t_2_7 - t_2_4 + 1000.000000 u_2_4_7 - 0.000000 s_2_4  + 2000.000000 r_2_4_7 > 4.634800
t_1_8 - t_1_7 - 1000.000000 s_1_7  > -992.774300
t_1_8 - t_2_7 - 1000.000000 s_2_7  > -996.066800
t_2_8 - t_1_7 - 1000.000000 s_1_7  > -992.774300
t_2_8 - t_2_7 - 1000.000000 s_2_7  > -996.066800
s_1_7 + s_1_10 + 1000 r_1_7_10 >= 2
- s_1_7 - s_1_10 - 1000 r_1_7_10 >= -1001
t_1_7 - t_1_10 - 1000.000000 u_1_7_10 - 0.000000 s_1_10  + 2000.000000 r_1_7_10 > -998.807200
s_2_7 + s_2_10 + 1000 r_2_7_10 >= 2
- s_2_7 - s_2_10 - 1000 r_2_7_10 >= -1001
t_2_7 - t_2_10 - 1000.000000 u_2_7_10 - 0.000000 s_2_10  + 2000.000000 r_2_7_10 > -998.562300
s_1_7 + s_1_11 + 1000 r_1_7_11 >= 2
- s_1_7 - s_1_11 - 1000 r_1_7_11 >= -1001
t_1_7 - t_1_11 - 1000.000000 u_1_7_11 - 0.000000 s_1_11  + 2000.000000 r_1_7_11 > -996.524900
s_2_7 + s_2_11 + 1000 r_2_7_11 >= 2
- s_2_7 - s_2_11 - 1000 r_2_7_11 >= -1001
t_2_7 - t_2_11 - 1000.000000 u_2_7_11 - 0.000000 s_2_11  + 2000.000000 r_2_7_11 > -998.166300
s_1_8 + s_1_1 + 1000 r_1_1_8 >= 2
- s_1_8 - s_1_1 - 1000 r_1_1_8 >= -1001
t_1_8 - t_1_1 + 1000.000000 u_1_1_8 - 0.000000 s_1_1  + 2000.000000 r_1_1_8 > 10.177200
s_2_8 + s_2_1 + 1000 r_2_1_8 >= 2
- s_2_8 - s_2_1 - 1000 r_2_1_8 >= -1001
t_2_8 - t_2_1 + 1000.000000 u_2_1_8 - 0.000000 s_2_1  + 2000.000000 r_2_1_8 > 4.429700
s_1_8 + s_1_2 + 1000 r_1_2_8 >= 2
- s_1_8 - s_1_2 - 1000 r_1_2_8 >= -1001
t_1_8 - t_1_2 + 1000.000000 u_1_2_8 - 0.000000 s_1_2  + 2000.000000 r_1_2_8 > 5.083300
s_2_8 + s_2_2 + 1000 r_2_2_8 >= 2
- s_2_8 - s_2_2 - 1000 r_2_2_8 >= -1001
t_2_8 - t_2_2 + 1000.000000 u_2_2_8 - 0.000000 s_2_2  + 2000.000000 r_2_2_8 > 2.660600
s_1_8 + s_1_3 + 1000 r_1_3_8 >= 2
- s_1_8 - s_1_3 - 1000 r_1_3_8 >= -1001
t_1_8 - t_1_3 + 1000.000000 u_1_3_8 - 0.000000 s_1_3  + 2000.000000 r_1_3_8 > 7.335800
s_2_8 + s_2_3 + 1000 r_2_3_8 >= 2
- s_2_8 - s_2_3 - 1000 r_2_3_8 >= -1001
t_2_8 - t_2_3 + 1000.000000 u_2_3_8 - 0.000000 s_2_3  + 2000.000000 r_2_3_8 > 4.003000
s_1_8 + s_1_4 + 1000 r_1_4_8 >= 2
- s_1_8 - s_1_4 - 1000 r_1_4_8 >= -1001
t_1_8 - t_1_4 + 1000.000000 u_1_4_8 - 0.000000 s_1_4  + 2000.000000 r_1_4_8 > 10.160800
s_2_8 + s_2_4 + 1000 r_2_4_8 >= 2
- s_2_8 - s_2_4 - 1000 r_2_4_8 >= -1001
t_2_8 - t_2_4 + 1000.000000 u_2_4_8 - 0.000000 s_2_4  + 2000.000000 r_2_4_8 > 4.634800
t_1_9 - t_1_8 - 1000.000000 s_1_8  > -991.040800
t_1_9 - t_2_8 - 1000.000000 s_2_8  > -995.626600
t_2_9 - t_1_8 - 1000.000000 s_1_8  > -991.040800
t_2_9 - t_2_8 - 1000.000000 s_2_8  > -995.626600
s_1_8 + s_1_10 + 1000 r_1_8_10 >= 2
- s_1_8 - s_1_10 - 1000 r_1_8_10 >= -1001
t_1_8 - t_1_10 - 1000.000000 u_1_8_10 - 0.000000 s_1_10  + 2000.000000 r_1_8_10 > -998.807200
s_2_8 + s_2_10 + 1000 r_2_8_10 >= 2
- s_2_8 - s_2_10 - 1000 r_2_8_10 >= -1001
t_2_8 - t_2_10 - 1000.000000 u_2_8_10 - 0.000000 s_2_10  + 2000.000000 r_2_8_10 > -998.562300
s_1_8 + s_1_11 + 1000 r_1_8_11 >= 2
- s_1_8 - s_1_11 - 1000 r_1_8_11 >= -1001
t_1_8 - t_1_11 - 1000.000000 u_1_8_11 - 0.000000 s_1_11  + 2000.000000 r_1_8_11 > -996.524900
s_2_8 + s_2_11 + 1000 r_2_8_11 >= 2
- s_2_8 - s_2_11 - 1000 r_2_8_11 >= -1001
t_2_8 - t_2_11 - 1000.000000 u_2_8_11 - 0.000000 s_2_11  + 2000.000000 r_2_8_11 > -998.166300
s_1_9 + s_1_1 + 1000 r_1_1_9 >= 2
- s_1_9 - s_1_1 - 1000 r_1_1_9 >= -1001
t_1_9 - t_1_1 + 1000.000000 u_1_1_9 - 0.000000 s_1_1  + 2000.000000 r_1_1_9 > 10.177200
s_2_9 + s_2_1 + 1000 r_2_1_9 >= 2
- s_2_9 - s_2_1 - 1000 r_2_1_9 >= -1001
t_2_9 - t_2_1 + 1000.000000 u_2_1_9 - 0.000000 s_2_1  + 2000.000000 r_2_1_9 > 4.429700
s_1_9 + s_1_2 + 1000 r_1_2_9 >= 2
- s_1_9 - s_1_2 - 1000 r_1_2_9 >= -1001
t_1_9 - t_1_2 + 1000.000000 u_1_2_9 - 0.000000 s_1_2  + 2000.000000 r_1_2_9 > 5.083300
s_2_9 + s_2_2 + 1000 r_2_2_9 >= 2
- s_2_9 - s_2_2 - 1000 r_2_2_9 >= -1001
t_2_9 - t_2_2 + 1000.000000 u_2_2_9 - 0.000000 s_2_2  + 2000.000000 r_2_2_9 > 2.660600
s_1_9 + s_1_3 + 1000 r_1_3_9 >= 2
- s_1_9 - s_1_3 - 1000 r_1_3_9 >= -1001
t_1_9 - t_1_3 + 1000.000000 u_1_3_9 - 0.000000 s_1_3  + 2000.000000 r_1_3_9 > 7.335800
s_2_9 + s_2_3 + 1000 r_2_3_9 >= 2
- s_2_9 - s_2_3 - 1000 r_2_3_9 >= -1001
t_2_9 - t_2_3 + 1000.000000 u_2_3_9 - 0.000000 s_2_3  + 2000.000000 r_2_3_9 > 4.003000
s_1_9 + s_1_4 + 1000 r_1_4_9 >= 2
- s_1_9 - s_1_4 - 1000 r_1_4_9 >= -1001
t_1_9 - t_1_4 + 1000.000000 u_1_4_9 - 0.000000 s_1_4  + 2000.000000 r_1_4_9 > 10.160800
s_2_9 + s_2_4 + 1000 r_2_4_9 >= 2
- s_2_9 - s_2_4 - 1000 r_2_4_9 >= -1001
t_2_9 - t_2_4 + 1000.000000 u_2_4_9 - 0.000000 s_2_4  + 2000.000000 r_2_4_9 > 4.634800
s_1_9 + s_1_10 + 1000 r_1_9_10 >= 2
- s_1_9 - s_1_10 - 1000 r_1_9_10 >= -1001
t_1_9 - t_1_10 - 1000.000000 u_1_9_10 - 0.000000 s_1_10  + 2000.000000 r_1_9_10 > -998.807200
s_2_9 + s_2_10 + 1000 r_2_9_10 >= 2
- s_2_9 - s_2_10 - 1000 r_2_9_10 >= -1001
t_2_9 - t_2_10 - 1000.000000 u_2_9_10 - 0.000000 s_2_10  + 2000.000000 r_2_9_10 > -998.562300
s_1_9 + s_1_11 + 1000 r_1_9_11 >= 2
- s_1_9 - s_1_11 - 1000 r_1_9_11 >= -1001
t_1_9 - t_1_11 - 1000.000000 u_1_9_11 - 0.000000 s_1_11  + 2000.000000 r_1_9_11 > -996.524900
s_2_9 + s_2_11 + 1000 r_2_9_11 >= 2
- s_2_9 - s_2_11 - 1000 r_2_9_11 >= -1001
t_2_9 - t_2_11 - 1000.000000 u_2_9_11 - 0.000000 s_2_11  + 2000.000000 r_2_9_11 > -998.166300
t_1_12 - t_1_9 - 1000.000000 s_1_9  > -990.426800
t_1_12 - t_2_9 - 1000.000000 s_2_9  > -995.099000
t_2_12 - t_1_9 - 1000.000000 s_1_9  > -990.426800
t_2_12 - t_2_9 - 1000.000000 s_2_9  > -995.099000
s_1_10 + s_1_1 + 1000 r_1_1_10 >= 2
- s_1_10 - s_1_1 - 1000 r_1_1_10 >= -1001
t_1_10 - t_1_1 + 1000.000000 u_1_1_10 - 0.000000 s_1_1  + 2000.000000 r_1_1_10 > 10.177200
s_2_10 + s_2_1 + 1000 r_2_1_10 >= 2
- s_2_10 - s_2_1 - 1000 r_2_1_10 >= -1001
t_2_10 - t_2_1 + 1000.000000 u_2_1_10 - 0.000000 s_2_1  + 2000.000000 r_2_1_10 > 4.429700
s_1_10 + s_1_2 + 1000 r_1_2_10 >= 2
- s_1_10 - s_1_2 - 1000 r_1_2_10 >= -1001
t_1_10 - t_1_2 + 1000.000000 u_1_2_10 - 0.000000 s_1_2  + 2000.000000 r_1_2_10 > 5.083300
s_2_10 + s_2_2 + 1000 r_2_2_10 >= 2
- s_2_10 - s_2_2 - 1000 r_2_2_10 >= -1001
t_2_10 - t_2_2 + 1000.000000 u_2_2_10 - 0.000000 s_2_2  + 2000.000000 r_2_2_10 > 2.660600
s_1_10 + s_1_3 + 1000 r_1_3_10 >= 2
- s_1_10 - s_1_3 - 1000 r_1_3_10 >= -1001
t_1_10 - t_1_3 + 1000.000000 u_1_3_10 - 0.000000 s_1_3  + 2000.000000 r_1_3_10 > 7.335800
s_2_10 + s_2_3 + 1000 r_2_3_10 >= 2
- s_2_10 - s_2_3 - 1000 r_2_3_10 >= -1001
t_2_10 - t_2_3 + 1000.000000 u_2_3_10 - 0.000000 s_2_3  + 2000.000000 r_2_3_10 > 4.003000
s_1_10 + s_1_4 + 1000 r_1_4_10 >= 2
- s_1_10 - s_1_4 - 1000 r_1_4_10 >= -1001
t_1_10 - t_1_4 + 1000.000000 u_1_4_10 - 0.000000 s_1_4  + 2000.000000 r_1_4_10 > 10.160800
s_2_10 + s_2_4 + 1000 r_2_4_10 >= 2
- s_2_10 - s_2_4 - 1000 r_2_4_10 >= -1001
t_2_10 - t_2_4 + 1000.000000 u_2_4_10 - 0.000000 s_2_4  + 2000.000000 r_2_4_10 > 4.634800
s_1_10 + s_1_5 + 1000 r_1_5_10 >= 2
- s_1_10 - s_1_5 - 1000 r_1_5_10 >= -1001
t_1_10 - t_1_5 + 1000.000000 u_1_5_10 - 0.000000 s_1_5  + 2000.000000 r_1_5_10 > 4.993000
s_2_10 + s_2_5 + 1000 r_2_5_10 >= 2
- s_2_10 - s_2_5 - 1000 r_2_5_10 >= -1001
t_2_10 - t_2_5 + 1000.000000 u_2_5_10 - 0.000000 s_2_5  + 2000.000000 r_2_5_10 > 2.627800
s_1_10 + s_1_6 + 1000 r_1_6_10 >= 2
- s_1_10 - s_1_6 - 1000 r_1_6_10 >= -1001
t_1_10 - t_1_6 + 1000.000000 u_1_6_10 - 0.000000 s_1_6  + 2000.000000 r_1_6_10 > 6.573200
s_2_10 + s_2_6 + 1000 r_2_6_10 >= 2
- s_2_10 - s_2_6 - 1000 r_2_6_10 >= -1001
t_2_10 - t_2_6 + 1000.000000 u_2_6_10 - 0.000000 s_2_6  + 2000.000000 r_2_6_10 > 3.216900
s_1_10 + s_1_7 + 1000 r_1_7_10 >= 2
- s_1_10 - s_1_7 - 1000 r_1_7_10 >= -1001
t_1_10 - t_1_7 + 1000.000000 u_1_7_10 - 0.000000 s_1_7  + 2000.000000 r_1_7_10 > 7.225700
s_2_10 + s_2_7 + 1000 r_2_7_10 >= 2
- s_2_10 - s_2_7 - 1000 r_2_7_10 >= -1001
t_2_10 - t_2_7 + 1000.000000 u_2_7_10 - 0.000000 s_2_7  + 2000.000000 r_2_7_10 > 3.933200
s_1_10 + s_1_8 + 1000 r_1_8_10 >= 2
- s_1_10 - s_1_8 - 1000 r_1_8_10 >= -1001
t_1_10 - t_1_8 + 1000.000000 u_1_8_10 - 0.000000 s_1_8  + 2000.000000 r_1_8_10 > 8.959200
s_2_10 + s_2_8 + 1000 r_2_8_10 >= 2
- s_2_10 - s_2_8 - 1000 r_2_8_10 >= -1001
t_2_10 - t_2_8 + 1000.000000 u_2_8_10 - 0.000000 s_2_8  + 2000.000000 r_2_8_10 > 4.373400
s_1_10 + s_1_9 + 1000 r_1_9_10 >= 2
- s_1_10 - s_1_9 - 1000 r_1_9_10 >= -1001
t_1_10 - t_1_9 + 1000.000000 u_1_9_10 - 0.000000 s_1_9  + 2000.000000 r_1_9_10 > 9.573200
s_2_10 + s_2_9 + 1000 r_2_9_10 >= 2
- s_2_10 - s_2_9 - 1000 r_2_9_10 >= -1001
t_2_10 - t_2_9 + 1000.000000 u_2_9_10 - 0.000000 s_2_9  + 2000.000000 r_2_9_10 > 4.901000
t_1_11 - t_1_10 - 1000.000000 s_1_10  > -998.807200
t_1_11 - t_2_10 - 1000.000000 s_2_10  > -998.562300
t_2_11 - t_1_10 - 1000.000000 s_1_10  > -998.807200
t_2_11 - t_2_10 - 1000.000000 s_2_10  > -998.562300
s_1_11 + s_1_1 + 1000 r_1_1_11 >= 2
- s_1_11 - s_1_1 - 1000 r_1_1_11 >= -1001
t_1_11 - t_1_1 + 1000.000000 u_1_1_11 - 0.000000 s_1_1  + 2000.000000 r_1_1_11 > 10.177200
s_2_11 + s_2_1 + 1000 r_2_1_11 >= 2
- s_2_11 - s_2_1 - 1000 r_2_1_11 >= -1001
t_2_11 - t_2_1 + 1000.000000 u_2_1_11 - 0.000000 s_2_1  + 2000.000000 r_2_1_11 > 4.429700
s_1_11 + s_1_2 + 1000 r_1_2_11 >= 2
- s_1_11 - s_1_2 - 1000 r_1_2_11 >= -1001
t_1_11 - t_1_2 + 1000.000000 u_1_2_11 - 0.000000 s_1_2  + 2000.000000 r_1_2_11 > 5.083300
s_2_11 + s_2_2 + 1000 r_2_2_11 >= 2
- s_2_11 - s_2_2 - 1000 r_2_2_11 >= -1001
t_2_11 - t_2_2 + 1000.000000 u_2_2_11 - 0.000000 s_2_2  + 2000.000000 r_2_2_11 > 2.660600
s_1_11 + s_1_3 + 1000 r_1_3_11 >= 2
- s_1_11 - s_1_3 - 1000 r_1_3_11 >= -1001
t_1_11 - t_1_3 + 1000.000000 u_1_3_11 - 0.000000 s_1_3  + 2000.000000 r_1_3_11 > 7.335800
s_2_11 + s_2_3 + 1000 r_2_3_11 >= 2
- s_2_11 - s_2_3 - 1000 r_2_3_11 >= -1001
t_2_11 - t_2_3 + 1000.000000 u_2_3_11 - 0.000000 s_2_3  + 2000.000000 r_2_3_11 > 4.003000
s_1_11 + s_1_4 + 1000 r_1_4_11 >= 2
- s_1_11 - s_1_4 - 1000 r_1_4_11 >= -1001
t_1_11 - t_1_4 + 1000.000000 u_1_4_11 - 0.000000 s_1_4  + 2000.000000 r_1_4_11 > 10.160800
s_2_11 + s_2_4 + 1000 r_2_4_11 >= 2
- s_2_11 - s_2_4 - 1000 r_2_4_11 >= -1001
t_2_11 - t_2_4 + 1000.000000 u_2_4_11 - 0.000000 s_2_4  + 2000.000000 r_2_4_11 > 4.634800
s_1_11 + s_1_5 + 1000 r_1_5_11 >= 2
- s_1_11 - s_1_5 - 1000 r_1_5_11 >= -1001
t_1_11 - t_1_5 + 1000.000000 u_1_5_11 - 0.000000 s_1_5  + 2000.000000 r_1_5_11 > 4.993000
s_2_11 + s_2_5 + 1000 r_2_5_11 >= 2
- s_2_11 - s_2_5 - 1000 r_2_5_11 >= -1001
t_2_11 - t_2_5 + 1000.000000 u_2_5_11 - 0.000000 s_2_5  + 2000.000000 r_2_5_11 > 2.627800
s_1_11 + s_1_6 + 1000 r_1_6_11 >= 2
- s_1_11 - s_1_6 - 1000 r_1_6_11 >= -1001
t_1_11 - t_1_6 + 1000.000000 u_1_6_11 - 0.000000 s_1_6  + 2000.000000 r_1_6_11 > 6.573200
s_2_11 + s_2_6 + 1000 r_2_6_11 >= 2
- s_2_11 - s_2_6 - 1000 r_2_6_11 >= -1001
t_2_11 - t_2_6 + 1000.000000 u_2_6_11 - 0.000000 s_2_6  + 2000.000000 r_2_6_11 > 3.216900
s_1_11 + s_1_7 + 1000 r_1_7_11 >= 2
- s_1_11 - s_1_7 - 1000 r_1_7_11 >= -1001
t_1_11 - t_1_7 + 1000.000000 u_1_7_11 - 0.000000 s_1_7  + 2000.000000 r_1_7_11 > 7.225700
s_2_11 + s_2_7 + 1000 r_2_7_11 >= 2
- s_2_11 - s_2_7 - 1000 r_2_7_11 >= -1001
t_2_11 - t_2_7 + 1000.000000 u_2_7_11 - 0.000000 s_2_7  + 2000.000000 r_2_7_11 > 3.933200
s_1_11 + s_1_8 + 1000 r_1_8_11 >= 2
- s_1_11 - s_1_8 - 1000 r_1_8_11 >= -1001
t_1_11 - t_1_8 + 1000.000000 u_1_8_11 - 0.000000 s_1_8  + 2000.000000 r_1_8_11 > 8.959200
s_2_11 + s_2_8 + 1000 r_2_8_11 >= 2
- s_2_11 - s_2_8 - 1000 r_2_8_11 >= -1001
t_2_11 - t_2_8 + 1000.000000 u_2_8_11 - 0.000000 s_2_8  + 2000.000000 r_2_8_11 > 4.373400
s_1_11 + s_1_9 + 1000 r_1_9_11 >= 2
- s_1_11 - s_1_9 - 1000 r_1_9_11 >= -1001
t_1_11 - t_1_9 + 1000.000000 u_1_9_11 - 0.000000 s_1_9  + 2000.000000 r_1_9_11 > 9.573200
s_2_11 + s_2_9 + 1000 r_2_9_11 >= 2
- s_2_11 - s_2_9 - 1000 r_2_9_11 >= -1001
t_2_11 - t_2_9 + 1000.000000 u_2_9_11 - 0.000000 s_2_9  + 2000.000000 r_2_9_11 > 4.901000
t_1_12 - t_1_11 - 1000.000000 s_1_11  > -996.524900
t_1_12 - t_2_11 - 1000.000000 s_2_11  > -998.166300
t_2_12 - t_1_11 - 1000.000000 s_1_11  > -996.524900
t_2_12 - t_2_11 - 1000.000000 s_2_11  > -998.166300
Binary
s_1_1
s_2_1
s_1_2
s_2_2
s_1_3
s_2_3
s_1_4
s_2_4
s_1_5
s_2_5
s_1_6
s_2_6
s_1_7
s_2_7
s_1_8
s_2_8
s_1_9
s_2_9
s_1_10
s_2_10
s_1_11
s_2_11
s_1_12
s_2_12
u_1_1_2
r_1_1_2
u_2_1_2
r_2_1_2
u_1_1_3
r_1_1_3
u_2_1_3
r_2_1_3
u_1_1_4
r_1_1_4
u_2_1_4
r_2_1_4
u_1_1_5
r_1_1_5
u_2_1_5
r_2_1_5
u_1_1_6
r_1_1_6
u_2_1_6
r_2_1_6
u_1_1_7
r_1_1_7
u_2_1_7
r_2_1_7
u_1_1_8
r_1_1_8
u_2_1_8
r_2_1_8
u_1_1_9
r_1_1_9
u_2_1_9
r_2_1_9
u_1_1_10
r_1_1_10
u_2_1_10
r_2_1_10
u_1_1_11
r_1_1_11
u_2_1_11
r_2_1_11
u_1_2_5
r_1_2_5
u_2_2_5
r_2_2_5
u_1_2_6
r_1_2_6
u_2_2_6
r_2_2_6
u_1_2_7
r_1_2_7
u_2_2_7
r_2_2_7
u_1_2_8
r_1_2_8
u_2_2_8
r_2_2_8
u_1_2_9
r_1_2_9
u_2_2_9
r_2_2_9
u_1_2_10
r_1_2_10
u_2_2_10
r_2_2_10
u_1_2_11
r_1_2_11
u_2_2_11
r_2_2_11
u_1_3_5
r_1_3_5
u_2_3_5
r_2_3_5
u_1_3_6
r_1_3_6
u_2_3_6
r_2_3_6
u_1_3_7
r_1_3_7
u_2_3_7
r_2_3_7
u_1_3_8
r_1_3_8
u_2_3_8
r_2_3_8
u_1_3_9
r_1_3_9
u_2_3_9
r_2_3_9
u_1_3_10
r_1_3_10
u_2_3_10
r_2_3_10
u_1_3_11
r_1_3_11
u_2_3_11
r_2_3_11
u_1_4_5
r_1_4_5
u_2_4_5
r_2_4_5
u_1_4_6
r_1_4_6
u_2_4_6
r_2_4_6
u_1_4_7
r_1_4_7
u_2_4_7
r_2_4_7
u_1_4_8
r_1_4_8
u_2_4_8
r_2_4_8
u_1_4_9
r_1_4_9
u_2_4_9
r_2_4_9
u_1_4_10
r_1_4_10
u_2_4_10
r_2_4_10
u_1_4_11
r_1_4_11
u_2_4_11
r_2_4_11
u_1_5_10
r_1_5_10
u_2_5_10
r_2_5_10
u_1_5_11
r_1_5_11
u_2_5_11
r_2_5_11
u_1_6_10
r_1_6_10
u_2_6_10
r_2_6_10
u_1_6_11
r_1_6_11
u_2_6_11
r_2_6_11
u_1_7_10
r_1_7_10
u_2_7_10
r_2_7_10
u_1_7_11
r_1_7_11
u_2_7_11
r_2_7_11
u_1_8_10
r_1_8_10
u_2_8_10
r_2_8_10
u_1_8_11
r_1_8_11
u_2_8_11
r_2_8_11
u_1_9_10
r_1_9_10
u_2_9_10
r_2_9_10
u_1_9_11
r_1_9_11
u_2_9_11
r_2_9_11

End
